SDVRP instances/custom_instances/p03_29_splitx10_0.vrp
NAME:p03_29_splitx10_
BEST_KNOWN: 0
COMMENT: 0
DIMENSION: 461
CAPACITY: 2000
EDGE_WEIGHT_FORMAT: FUNCTION
EDGE_WEIGHT_TYPE: EXACT_2D
NODE_COORD_SECTION
1 0.00000 0.00000
2 -12 -39
3 -12 -39
4 -12 -39
5 -12 -39
6 -19 21
7 -19 21
8 -19 21
9 -19 21
10 -19 21
11 48 -18
12 48 -18
13 48 -18
14 -21 29
15 -21 34
16 -21 34
17 13 2
18 13 2
19 13 2
20 13 2
21 1 -50
22 1 -50
23 1 -50
24 1 -50
25 1 -50
26 1 -50
27 1 -50
28 25 -14
29 25 -14
30 19 -1
31 19 -1
32 19 -1
33 19 -1
34 19 -1
35 19 -1
36 10 -15
37 10 -15
38 10 -15
39 10 -15
40 10 -15
41 44 -17
42 44 -17
43 44 -17
44 44 -17
45 44 -17
46 -25 -47
47 -25 -47
48 -25 -47
49 25 43
50 25 43
51 25 43
52 25 43
53 25 43
54 25 43
55 17 30
56 17 30
57 17 30
58 17 30
59 -22 48
60 -22 48
61 -36 -1
62 -36 -1
63 -36 -1
64 -36 -1
65 -36 -1
66 45 44
67 45 44
68 45 44
69 45 44
70 45 44
71 45 44
72 19 5
73 19 5
74 19 5
75 19 5
76 19 5
77 19 5
78 19 5
79 19 5
80 -35 49
81 -35 49
82 -35 49
83 28 -7
84 28 -7
85 28 -7
86 28 -7
87 -21 48
88 -21 48
89 -21 48
90 -21 48
91 -21 48
92 2 -48
93 2 -48
94 2 -48
95 2 -48
96 2 -48
97 2 -48
98 2 -48
99 38 39
100 38 39
101 38 39
102 38 39
103 38 39
104 15 45
105 15 45
106 15 45
107 15 45
108 15 45
109 43 50
110 43 50
111 43 50
112 43 50
113 43 50
114 -34 -49
115 -34 -49
116 -34 -49
117 -22 24
118 -22 24
119 -22 24
120 -14 16
121 -37 -27
122 -37 -27
123 -37 -27
124 -37 -27
125 -37 -27
126 -37 -27
127 -37 -27
128 5 34
129 5 34
130 5 34
131 5 34
132 48 47
133 48 47
134 48 47
135 48 47
136 48 47
137 48 47
138 42 3
139 42 3
140 42 3
141 42 3
142 42 3
143 18 2
144 18 2
145 18 2
146 18 2
147 47 -1
148 47 -1
149 47 -1
150 47 -1
151 47 -1
152 1 -4
153 1 -4
154 1 -4
155 1 -4
156 31 -49
157 31 -49
158 31 -49
159 31 -49
160 31 -49
161 -3 28
162 -3 28
163 -3 28
164 -3 28
165 -3 28
166 -25 34
167 -25 34
168 -25 34
169 -25 34
170 -25 34
171 -36 39
172 -36 39
173 -36 39
174 -36 39
175 -36 39
176 36 4
177 36 4
178 36 4
179 36 4
180 36 4
181 -49 8
182 -49 8
183 -49 8
184 -49 8
185 -49 8
186 -49 8
187 24 -30
188 24 -30
189 24 -30
190 -17 -9
191 -17 -9
192 -17 -9
193 -17 -9
194 -17 -9
195 -17 -9
196 -28 45
197 -28 45
198 -28 45
199 -28 45
200 13 18
201 13 18
202 13 18
203 -18 5
204 -18 5
205 -18 5
206 15 4
207 15 4
208 41 -33
209 41 -33
210 41 -33
211 41 -33
212 41 -33
213 41 -33
214 -37 39
215 -37 39
216 -37 39
217 -37 39
218 -37 39
219 -37 39
220 -37 39
221 18 -49
222 18 -49
223 18 -49
224 18 -49
225 18 -49
226 -30 11
227 -30 11
228 -30 11
229 23 -24
230 23 -24
231 23 -24
232 23 -24
233 23 -24
234 23 -24
235 -6 9
236 -6 9
237 -6 9
238 -6 9
239 -6 9
240 -6 9
241 -6 9
242 -47 2
243 -47 2
244 -47 2
245 -47 2
246 0 -10
247 0 -10
248 0 -10
249 30 1
250 30 1
251 30 1
252 30 1
253 35 25
254 35 25
255 35 25
256 35 25
257 35 25
258 49 29
259 49 29
260 49 29
261 49 29
262 49 29
263 49 29
264 -44 36
265 -44 36
266 -44 36
267 -46 -2
268 -46 -2
269 -46 -2
270 -46 -2
271 -46 -2
272 -46 -2
273 -40 35
274 -40 35
275 -40 35
276 -40 35
277 -40 35
278 -35 4
279 -35 4
280 -35 4
281 -35 4
282 -35 4
283 -16 14
284 -16 14
285 -16 14
286 -16 14
287 -16 14
288 -16 14
289 -16 14
290 34 42
291 34 42
292 34 42
293 34 42
294 34 42
295 34 42
296 -40 -12
297 -40 -12
298 -3 33
299 -3 33
300 -3 33
301 -3 33
302 -3 33
303 35 1
304 35 1
305 35 1
306 35 1
307 35 1
308 -33 -24
309 -33 -24
310 -33 -24
311 -33 -24
312 0 -37
313 0 -37
314 0 -37
315 0 -37
316 -11 -25
317 -11 -25
318 -11 -25
319 -2 34
320 -2 34
321 -2 34
322 -2 34
323 -2 34
324 -2 34
325 -40 30
326 -40 30
327 -40 30
328 20 -18
329 20 -18
330 20 -18
331 -11 -16
332 -11 -16
333 -11 -16
334 -11 -16
335 -11 -16
336 -11 -16
337 -11 -16
338 13 -19
339 13 -19
340 13 -19
341 13 -19
342 6 47
343 6 47
344 6 47
345 6 47
346 6 47
347 6 47
348 6 47
349 6 47
350 -37 -2
351 -37 -2
352 -37 -2
353 -37 -2
354 -37 -2
355 -37 -2
356 -37 -2
357 -26 17
358 -26 17
359 44 20
360 44 20
361 44 20
362 44 20
363 41 28
364 41 28
365 41 28
366 41 28
367 46 17
368 -25 -20
369 -25 -20
370 -25 -20
371 -25 -20
372 -25 -20
373 41 33
374 41 33
375 41 33
376 41 33
377 41 33
378 20 -5
379 20 -5
380 20 -5
381 20 -5
382 20 -5
383 20 -5
384 50 16
385 50 16
386 50 16
387 50 16
388 50 16
389 2 31
390 2 31
391 2 31
392 -32 -37
393 -32 -37
394 -32 -37
395 -32 -37
396 26 47
397 26 47
398 13 -10
399 13 -10
400 13 -10
401 13 -10
402 13 -10
403 13 -10
404 -22 38
405 -22 38
406 -32 22
407 -32 22
408 -32 22
409 -32 22
410 -32 22
411 -32 22
412 -27 -10
413 -27 -10
414 -27 -10
415 -27 -10
416 0 -25
417 0 -25
418 0 -25
419 0 -25
420 0 -25
421 0 -25
422 -7 28
423 -7 28
424 -7 28
425 -7 28
426 49 23
427 49 23
428 49 23
429 49 23
430 49 23
431 33 32
432 33 32
433 33 32
434 33 32
435 33 32
436 33 32
437 39 -37
438 39 -37
439 39 -37
440 39 -37
441 39 -37
442 39 -37
443 39 -37
444 -41 16
445 -41 16
446 -41 16
447 -41 16
448 -41 16
449 -41 16
450 12 -25
451 12 -25
452 12 -25
453 12 -25
454 12 -25
455 12 -25
456 47 25
457 47 25
458 47 25
459 47 25
460 47 25
461 47 25
DEMAND_SECTION
1 0
2 400
3 100
4 20
5 10
6 400
7 200
8 20
9 20
10 20
11 400
12 100
13 10
14 400
15 200
16 100
17 400
18 400
19 100
20 10
21 200
22 100
23 20
24 20
25 20
26 20
27 10
28 200
29 100
30 400
31 200
32 100
33 20
34 20
35 10
36 400
37 400
38 100
39 20
40 20
41 400
42 400
43 100
44 20
45 10
46 400
47 400
48 200
49 400
50 100
51 20
52 20
53 20
54 20
55 400
56 200
57 20
58 20
59 400
60 100
61 200
62 100
63 20
64 20
65 10
66 400
67 200
68 20
69 20
70 20
71 10
72 400
73 400
74 100
75 20
76 20
77 20
78 20
79 10
80 400
81 200
82 100
83 200
84 20
85 20
86 20
87 400
88 400
89 20
90 20
91 10
92 400
93 200
94 20
95 20
96 20
97 20
98 10
99 400
100 400
101 20
102 20
103 20
104 200
105 100
106 20
107 20
108 20
109 400
110 20
111 20
112 20
113 20
114 400
115 20
116 10
117 400
118 20
119 10
120 400
121 400
122 100
123 20
124 20
125 20
126 20
127 10
128 200
129 100
130 20
131 20
132 200
133 100
134 20
135 20
136 20
137 20
138 400
139 100
140 20
141 20
142 10
143 400
144 100
145 20
146 10
147 400
148 20
149 20
150 20
151 20
152 400
153 400
154 100
155 20
156 200
157 100
158 20
159 20
160 20
161 400
162 400
163 20
164 20
165 10
166 400
167 200
168 100
169 20
170 20
171 400
172 400
173 20
174 20
175 10
176 400
177 100
178 20
179 20
180 10
181 400
182 400
183 100
184 20
185 20
186 20
187 400
188 400
189 20
190 400
191 400
192 20
193 20
194 20
195 10
196 200
197 20
198 20
199 10
200 400
201 400
202 200
203 400
204 20
205 10
206 400
207 400
208 400
209 400
210 100
211 20
212 20
213 20
214 400
215 400
216 100
217 20
218 20
219 20
220 20
221 400
222 200
223 100
224 20
225 10
226 400
227 400
228 100
229 400
230 200
231 100
232 20
233 20
234 10
235 400
236 100
237 20
238 20
239 20
240 20
241 10
242 400
243 200
244 100
245 10
246 400
247 400
248 20
249 400
250 400
251 100
252 20
253 400
254 20
255 20
256 20
257 20
258 400
259 100
260 20
261 20
262 20
263 10
264 400
265 100
266 20
267 400
268 400
269 100
270 20
271 20
272 10
273 400
274 200
275 20
276 20
277 10
278 400
279 100
280 20
281 20
282 10
283 400
284 200
285 100
286 20
287 20
288 20
289 10
290 400
291 400
292 20
293 20
294 20
295 20
296 200
297 100
298 400
299 200
300 100
301 20
302 20
303 400
304 100
305 20
306 20
307 20
308 400
309 200
310 100
311 20
312 400
313 20
314 20
315 10
316 400
317 400
318 200
319 400
320 400
321 20
322 20
323 20
324 10
325 400
326 400
327 100
328 400
329 400
330 10
331 400
332 200
333 20
334 20
335 20
336 20
337 10
338 400
339 100
340 20
341 20
342 400
343 400
344 100
345 20
346 20
347 20
348 20
349 10
350 400
351 100
352 20
353 20
354 20
355 20
356 10
357 400
358 200
359 400
360 200
361 20
362 20
363 400
364 20
365 20
366 20
367 400
368 400
369 400
370 100
371 20
372 20
373 400
374 400
375 20
376 20
377 10
378 400
379 400
380 20
381 20
382 20
383 20
384 200
385 20
386 20
387 20
388 10
389 400
390 20
391 20
392 400
393 20
394 20
395 20
396 200
397 100
398 200
399 100
400 20
401 20
402 20
403 10
404 400
405 400
406 200
407 100
408 20
409 20
410 20
411 10
412 400
413 100
414 20
415 20
416 400
417 400
418 100
419 20
420 20
421 20
422 400
423 200
424 100
425 20
426 400
427 200
428 100
429 20
430 20
431 400
432 100
433 20
434 20
435 20
436 20
437 400
438 400
439 20
440 20
441 20
442 20
443 10
444 400
445 400
446 20
447 20
448 20
449 10
450 200
451 20
452 20
453 20
454 20
455 10
456 400
457 100
458 20
459 20
460 20
461 10
DEPOT_SECTION
1
-1
EOF