SDVRP instances/custom_instances/p03_29_splitx10_0.sol
460 -3 2 1 4 45 46 47 115 113 114 393 394 -8 5 118 116 117 165 167 166 168 169 13 -11 12 10 44 40 41 43 42 28 27 399 398 400 -14 404 198 195 197 196 79 81 80 170 -15 403 58 59 90 87 88 86 89 -19 17 16 18 206 205 -38 35 39 37 36 338 337 340 339 -53 52 50 51 48 49 103 105 107 106 104 346 341 342 344 348 343 345 347 -54 55 57 56 201 200 199 -77 72 75 71 74 78 76 73 251 249 248 250 -91 95 96 93 97 94 92 22 21 24 20 23 25 26 313 311 312 314 416 -98 101 99 294 289 290 292 293 291 396 395 -110 111 112 108 109 132 136 135 134 131 133 70 65 68 66 69 67 102 100 430 -143 303 302 306 304 305 387 383 385 386 384 366 361 359 360 358 -144 177 178 179 175 176 138 140 139 137 141 146 149 150 148 147 83 82 84 85 380 382 381 379 -145 142 30 29 32 33 31 34 377 378 -151 154 152 153 246 245 247 -164 160 163 161 162 297 424 421 423 422 -173 171 174 172 213 215 218 219 217 214 216 273 406 408 405 407 409 410 -186 188 187 156 158 155 159 157 222 224 223 220 221 -193 189 190 194 191 192 370 368 367 369 371 -202 203 284 282 283 285 119 234 238 237 236 -204 225 227 226 357 356 6 7 9 239 235 240 -207 212 209 210 211 208 440 442 441 436 438 439 437 230 -243 241 242 244 269 266 268 271 270 267 296 295 -255 254 253 252 256 365 364 362 363 372 374 373 375 376 431 435 434 433 432 -278 185 181 182 183 184 180 443 445 446 447 448 444 -279 280 281 277 61 60 64 63 62 349 355 354 352 351 353 350 411 413 414 412 -287 286 288 274 276 272 275 263 265 264 324 325 326 -299 301 300 298 322 319 318 321 320 323 129 127 130 128 389 388 390 -307 308 309 310 123 125 126 121 122 120 124 391 392 331 332 335 336 333 -334 330 317 316 315 415 418 419 417 420 -402 397 401 328 329 327 233 231 232 229 228 453 450 452 454 451 449 -427 428 426 429 425 262 257 258 261 259 260 455 460 457 459 456 458 0 





OBJ=
3073.593
BEST_KNOWN=
0.000